30
44
4
66
74
77
21
0 2
0 8
0 13
0 26
1 6
1 12
1 13
1 16
1 21
3 5
4 23
7 10
7 16
7 22
7 28
8 29
9 13
9 16
9 17
9 19
10 19
11 16
11 24
11 28
11 29
12 15
12 26
13 15
14 24
15 28
16 28
17 23
17 29
18 19
18 23
18 27
18 29
20 21
20 23
21 25
22 28
23 27
24 28
26 29
24 20 27 16 25 17 7 23 1
19 9 29 6 21 8 13 28 4
10 3 5 18 2 22 26 0 12
14 11 15
